9910,117009;130597,000000;[1, 2, 3, 6, 10, 13, 16, 25, 23, 20, 17, 32, 27, 21, 28, 44, 56, 59, 68, 73, 71, 74, 77, 75, 79, 86, 101, 102, 90, 92, 95, 94, 96, 91, 87, 82, 80, 78, 76, 69, 63, 67, 65, 66, 60, 50, 46, 42, 39, 37, 40, 45, 47, 51, 52, 53, 54, 48, 43, 41, 34, 31, 29, 30, 33, 38, 36, 26, 11, 9, 8, 4, 14, 18, 49, 55, 57, 72, 83, 99, 104, 105, 106, 107, 109, 111, 114, 115, 116, 120, 119, 122, 123, 127, 132, 134, 128, 130, 135, 142, 147, 154, 150, 146, 151, 140, 143, 149, 152, 156, 153, 138, 137, 141, 145, 148, 144, 139, 136, 133, 131, 126, 124, 125, 113, 112, 108, 118, 121, 117, 159, 165, 170, 169, 166, 161, 157, 158, 164, 167, 177, 179, 184, 192, 187, 188, 190, 191, 183, 180, 176, 174, 172, 173, 178, 171, 168, 175, 181, 193, 189, 186, 185, 182, 163, 162, 160, 155, 129, 110, 103, 100, 98, 93, 88, 89, 97, 85, 84, 64, 19, 62, 35, 58, 61, 81, 70, 24, 22, 12, 15, 7, 5, 0, 1]
10113,685223;130135,000000;[3, 1, 2, 6, 10, 13, 16, 25, 23, 20, 17, 32, 27, 21, 28, 44, 56, 59, 68, 73, 71, 74, 77, 75, 79, 86, 101, 102, 90, 92, 95, 94, 96, 91, 87, 82, 78, 80, 76, 69, 63, 67, 65, 66, 60, 57, 55, 52, 51, 47, 45, 40, 37, 39, 42, 53, 54, 48, 41, 43, 34, 31, 29, 30, 33, 38, 46, 50, 36, 26, 11, 9, 8, 4, 14, 18, 49, 72, 83, 99, 109, 111, 114, 115, 116, 120, 119, 127, 122, 123, 128, 134, 132, 142, 147, 154, 150, 146, 151, 152, 149, 143, 153, 156, 140, 138, 137, 141, 136, 139, 144, 148, 145, 155, 160, 162, 163, 168, 175, 181, 171, 178, 185, 186, 182, 172, 173, 174, 176, 180, 183, 187, 188, 190, 191, 189, 193, 192, 184, 179, 177, 167, 164, 158, 157, 161, 166, 169, 170, 165, 159, 135, 130, 117, 105, 104, 106, 107, 121, 118, 112, 108, 113, 125, 124, 126, 131, 133, 129, 110, 103, 100, 98, 93, 89, 88, 97, 85, 84, 64, 19, 62, 35, 58, 61, 81, 70, 24, 22, 12, 15, 7, 5, 0, 3]
10414,786077;143085,000000;[0, 3, 1, 2, 4, 8, 9, 11, 14, 18, 29, 31, 30, 33, 39, 42, 40, 37, 45, 47, 51, 52, 53, 54, 48, 41, 43, 34, 49, 55, 57, 46, 50, 38, 36, 26, 28, 21, 27, 32, 56, 44, 63, 69, 76, 78, 80, 82, 87, 92, 95, 94, 91, 96, 104, 105, 106, 107, 109, 111, 114, 115, 116, 120, 119, 127, 123, 122, 132, 134, 128, 130, 135, 142, 147, 154, 150, 146, 151, 152, 149, 143, 153, 156, 138, 137, 141, 145, 148, 144, 139, 136, 133, 131, 126, 124, 125, 113, 112, 108, 101, 102, 90, 77, 74, 71, 73, 68, 59, 67, 65, 66, 60, 72, 83, 99, 117, 121, 118, 140, 158, 157, 161, 166, 169, 170, 165, 159, 164, 167, 177, 179, 184, 192, 187, 190, 188, 191, 189, 186, 182, 185, 178, 171, 168, 175, 181, 193, 173, 172, 174, 183, 176, 180, 163, 162, 160, 155, 129, 110, 103, 100, 98, 93, 89, 88, 97, 85, 84, 64, 19, 62, 35, 58, 61, 81, 79, 86, 75, 70, 24, 22, 12, 10, 13, 16, 25, 23, 20, 17, 6, 15, 7, 5, 0]
